6 40 4 10
12 14 3 17 20 13 9 17 3 13 2 8 3 3 14 6 13 14 16 18 13 7 13 20 9 11 13 12 17 16 2 8 16 13 2 3 20 18 1 17 
4.06 2.43 0.15 3.55 2.53 0.04 5.66 0.8 2.2 4.69 4.2 0.97 2.52 5.5 5.85 3.15 3.97 3.99 5.57 6.84 4.25 3.68 6.99 3.52 0.16 6.11 5.84 4.39 6.8 3.54 4.98 6.6 6.47 0.3 0.77 3.13 1.54 7.94 7.42 3.53 
4.28 3.41 0.31 3.76 3.12 2.46 0.46 7.42 0.4 1.27 5.82 5.95 3.53 2.15 2.01 2.89 2.81 6.94 2.53 7.43 1.85 7.91 4.49 5.64 0.3 5.4 5.47 0.65 7.57 5.11 6.59 7.14 3.81 2.19 0.41 4.87 6.74 0.18 5.01 4.73 
5.47 3.34 6.96 0.96 2.63 5.01 1.82 7.54 5.33 0.55 0.19 0.96 2.8 2.07 4.84 7.62 0.22 7.78 1.28 0.08 5.86 0.37 3.4 7.85 6.29 4.23 2.67 0.92 0.79 0.32 4.72 6.86 3.55 2.28 2.87 6 0.4 0.67 7.61 7.32 
4.39 5.38 1.32 4.53 0.35 1.23 4.69 1.31 5.58 0.45 1.25 7.34 7.09 3.22 3.09 2.59 2.08 5.25 6.59 4.9 3.46 1 6.04 7.02 6.44 6.1 0.87 0.96 0.74 2.15 0.68 4.67 6.01 4.69 1.65 2.88 7.48 4.19 0.21 4.73 
4 4 4 4 4 4 4 4 4 4 4 4 4 4 4 4 4 4 4 4 4 4 4 4 4 4 4 4 4 4 4 4 4 4 4 4 4 4 4 4 
1.24 3.9 5.16 0.8 4.23 2.57 4.88 4.7 7.71 3.91 6.2 0.14 7.3 2.14 0.98 3.44 0.49 1.72 1.7 5.47 7.55 1.33 0.22 6.01 2.24 1.27 5.03 2.22 1.87 4.49 1.77 6.47 6.66 6.79 3.49 3.99 3.32 5.75 4.81 0.09 
1 1 1 1 1 1 1 1 1 1 1 1 1 1 1 1 1 1 1 1 1 1 1 1 1 1 1 1 1 1 1 1 1 1 1 1 1 1 1 1 
1 1 1 1 1 1 1 1 1 1 1 1 1 1 1 1 1 1 1 1 1 1 1 1 1 1 1 1 1 1 1 1 1 1 1 1 1 1 1 1 
1 1 1 1 1 1 1 1 1 1 1 1 1 1 1 1 1 1 1 1 1 1 1 1 1 1 1 1 1 1 1 1 1 1 1 1 1 1 1 1 
1 1 1 1 1 1 1 1 1 1 1 1 1 1 1 1 1 1 1 1 1 1 1 1 1 1 1 1 1 1 1 1 1 1 1 1 1 1 1 1 
1 1 1 1 1 1 1 1 1 1 1 1 1 1 1 1 1 1 1 1 1 1 1 1 1 1 1 1 1 1 1 1 1 1 1 1 1 1 1 1 
1 1 1 1 1 1 1 1 1 1 1 1 1 1 1 1 1 1 1 1 1 1 1 1 1 1 1 1 1 1 1 1 1 1 1 1 1 1 1 1 
0.01 0.01 0.01 0.01 0.01 0.01 0.01 0.01 0.01 0.01 0.01 0.01 0.01 0.01 0.01 0.01 0.01 0.01 0.01 0.01 0.01 0.01 0.01 0.01 0.01 0.01 0.01 0.01 0.01 0.01 0.01 0.01 0.01 0.01 0.01 0.01 0.01 0.01 0.01 0.01 
0.02 0.02 0.02 0.02 0.02 0.02 0.02 0.02 0.02 0.02 0.02 0.02 0.02 0.02 0.02 0.02 0.02 0.02 0.02 0.02 0.02 0.02 0.02 0.02 0.02 0.02 0.02 0.02 0.02 0.02 0.02 0.02 0.02 0.02 0.02 0.02 0.02 0.02 0.02 0.02 
0.03 0.03 0.03 0.03 0.03 0.03 0.03 0.03 0.03 0.03 0.03 0.03 0.03 0.03 0.03 0.03 0.03 0.03 0.03 0.03 0.03 0.03 0.03 0.03 0.03 0.03 0.03 0.03 0.03 0.03 0.03 0.03 0.03 0.03 0.03 0.03 0.03 0.03 0.03 0.03 
0.04 0.04 0.04 0.04 0.04 0.04 0.04 0.04 0.04 0.04 0.04 0.04 0.04 0.04 0.04 0.04 0.04 0.04 0.04 0.04 0.04 0.04 0.04 0.04 0.04 0.04 0.04 0.04 0.04 0.04 0.04 0.04 0.04 0.04 0.04 0.04 0.04 0.04 0.04 0.04 
0.05 0.05 0.05 0.05 0.05 0.05 0.05 0.05 0.05 0.05 0.05 0.05 0.05 0.05 0.05 0.05 0.05 0.05 0.05 0.05 0.05 0.05 0.05 0.05 0.05 0.05 0.05 0.05 0.05 0.05 0.05 0.05 0.05 0.05 0.05 0.05 0.05 0.05 0.05 0.05 
1 1 1 1 1 1 1 1 1 1 1 1 1 1 1 1 1 1 1 1 1 1 1 1 1 1 1 1 1 1 1 1 1 1 1 1 1 1 1 1 
